n = 30;
lu = [|-558, 268
      |-423, 394
      |773, 821
      |-333, 80
      |190, 435
      |-519, 180
      |363, 434
      |-243, 130
      |181, 507
      |11, 85
      |-323, 478
      |-756, 401
      |-283, -53
      |-267, 161
      |-793, 116
      |344, 621
      |607, 860
      |-28, 486
      |769, 833
      |-326, -246
      |237, 666
      |-397, 495
      |-660, 870
      |-786, -247
      |-464, -318
      |-765, 635
      |-648, -151
      |-242, 438
      |-403, 676
      |-342, 150|];
